NAME: ./prFile/tspFile/tsp_file62.tsp
COMMENT: TSP file generated by Python
TYPE: TSP
DIMENSION: 40
EDGE_WEIGHT_TYPE: EUC_2D
NODE_COORD_SECTION
1 86 25
2 45 26
3 35 30
4 45 5
5 22 46
6 4 64
7 97 88
8 87 19
9 2 77
10 12 48
11 15 25
12 54 94
13 61 72
14 64 9
15 67 88
16 22 43
17 84 1
18 71 10
19 39 37
20 76 36
21 13 71
22 50 22
23 31 100
24 50 67
25 33 30
26 67 85
27 11 11
28 51 74
29 99 87
30 52 57
31 50 100
32 28 98
33 25 83
34 37 13
35 52 58
36 58 57
37 56 87
38 43 39
39 57 69
40 8 84
EOF
